benchmarks_vrp/CMT4/fixed_c/CMT4_5.vrp
NAME: CMT4_5
TYPE: CVRP
COMMENT: 1028.42 - Cluster Nr.5
DIMENSION: 18
CAPACITY: 200
EDGE_WEIGHT_TYPE: EUC_2D
NODE_COORD_TYPE: TWOD_COORDS
NODE_COORD_SECTION: 
5 35 69
4 37 52
10 31 62
1 27 69
14 27 68
2 24 58
7 45 65
9 31 52
8 42 57
13 35 35
17 25 55
6 31 67
3 43 67
12 26 52
18 30 60
11 40 60
15 37 69
16 37 56
DEPOT_SECTION: 
13
-1
DEMAND_SECTION: 
11 21
5 23
9 27
6 3
13 0
18 16
12 9
1 10
15 11
16 5
10 23
2 19
4 7
7 9
3 14
8 8
17 17
14 7
EOF
