benchmarks_vrp/CMT4/fixed_c/CMT4_5.tour
NAME: CMT4_5 solution
TYPE: TOUR
TOUR_SECTION:
13 9 4 -1
13 16 8 11 7 3 15 5 6 1 14 10 18 2 17 12 -1
-1
EOF